
Value of objective function: 91.00000000

Actual values of the variables:
v1                              1
v2                              1
v3                              1
v5                              1
v6                              1
v7                              0
v9                              1
v10                             0
v11                             1
v12                             0
v13                             0
v14                             1
v15                             0
v16                             0
v18                             0
v19                             1
v20                             0
v21                             0
v22                             1
v23                             1
v24                             1
v25                             0
v26                             1
v27                             0
v29                             1
v31                             1
v32                             0
v33                             0
v34                             0
v35                             0
v36                             0
v37                             0
v38                             1
v39                             1
v40                             0
v41                             0
v42                             0
v43                             0
v44                             1
v45                             1
v46                             1
v47                             1
v48                             1
v28                             0
v8                              0
v30                             0
v17                             0
v49                             0
v50                             0
v4                              0
